param set_len = 16;
param target_sum = 538033;
param values := [0] 29513 [1] 5508 [2] 83774 [3] 68486 [4] 57642 [5] 110186 [6] 64615 [7] 98946 [8] 40323 [9] 85431 [10] 123754 [11] 121818 [12] 13345 [13] 103927 [14] 12213 [15] 3343 ;
